\ LP format - for model browsing. Use MPS format to capture full model detail.
Maximize
  10 x_1 + x_2 + 9 x_3 + 10 x_4 + 9 x_5 + 7 x_6 + 5 x_7 + 8 x_8 + 2 x_9
   + x_10 + 4 x_11 + 7 x_12 + 9 x_13 + 5 x_14 + x_15 + 8 x_16 + 4 x_17
   + 8 x_18 + 4 x_19 + 8 x_20 + 9 x_21 + 3 x_22 + 7 x_23 + 8 x_24 + 6 x_25
Subject To
 C_1: 7 x_1 + 8 x_2 + 3 x_3 + 5 x_4 + 2 x_5 + 3 x_6 + 6 x_7 + 4 x_8 + 2 x_9
   + 7 x_10 + 3 x_11 + 8 x_12 + x_13 + 2 x_14 + x_15 + x_16 + 5 x_17
   + 9 x_18 + 2 x_19 + x_20 + x_21 + 9 x_22 + 6 x_23 + x_24 + 4 x_25 <= 50
 C_2: 4 x_1 + 9 x_2 + 8 x_3 + 2 x_4 + 6 x_5 + 3 x_6 + 8 x_7 + 5 x_8 + 5 x_9
   + 4 x_10 + 8 x_11 + 10 x_12 + 9 x_13 + 2 x_14 + x_15 + 5 x_16 + 6 x_17
   + 10 x_18 + 7 x_19 + 7 x_20 + 2 x_21 + 10 x_22 + 3 x_23 + 10 x_24 + x_25
   <= 72
 C_3: 3 x_1 + x_2 + 9 x_3 + 9 x_4 + x_5 + 4 x_6 + 4 x_7 + x_8 + 2 x_9
   + 5 x_10 + 8 x_11 + 4 x_12 + 4 x_13 + 4 x_14 + x_15 + 7 x_16 + 2 x_17
   + 10 x_18 + 5 x_19 + 3 x_20 + 2 x_21 + x_22 + 8 x_23 + x_24 + 7 x_25
   <= 53
 C_4: 6 x_1 + 2 x_2 + 6 x_3 + 8 x_4 + 3 x_5 + 6 x_6 + 10 x_7 + 5 x_8
   + 6 x_9 + 8 x_10 + 7 x_11 + 10 x_12 + x_13 + 7 x_14 + x_15 + 7 x_16
   + 4 x_17 + 6 x_18 + 10 x_19 + 8 x_20 + 8 x_21 + 6 x_22 + x_23 + 7 x_24
   + 2 x_25 <= 72
 C_5: 3 x_1 + 8 x_2 + 2 x_3 + 2 x_4 + 10 x_5 + x_6 + 7 x_7 + 3 x_8 + 6 x_9
   + 6 x_10 + 8 x_11 + 4 x_12 + 5 x_13 + 2 x_14 + x_15 + 5 x_16 + 9 x_17
   + 2 x_18 + 7 x_19 + 7 x_20 + 4 x_21 + 4 x_22 + 3 x_23 + 10 x_24 + 5 x_25
   <= 62
Bounds
Binaries
 x_1 x_2 x_3 x_4 x_5 x_6 x_7 x_8 x_9 x_10 x_11 x_12 x_13 x_14 x_15 x_16
 x_17 x_18 x_19 x_20 x_21 x_22 x_23 x_24 x_25
End
